data;

param n:=24;
param p:=3;
param r:=[1] 0 [2] 0 [3] 1 [4] 5 [5] 11 [6] 9 [7] 4 [8] 13 [9] 5 [10] 4 [11] 15 [12] 9 [13] 16 [14] 1 [15] 34 [16] 8 [17] 45 [18] 48 [19] 47 [20] 24 [21] 5 [22] 33 [23] 62 [24] 34 ;
param w:=[1] 47 [2] 17 [3] 78 [4] 88 [5] 91 [6] 72 [7] 10 [8] 73 [9] 73 [10] 8 [11] 95 [12] 21 [13] 55 [14] 63 [15] 10 [16] 53 [17] 52 [18] 22 [19] 60 [20] 43 [21] 61 [22] 51 [23] 35 [24] 88 ;

end;
